Optimal - objective value 800.00000000
      0 C0000000               1                       0
      1 C0000001               1                       0
      2 C0000002              -4                       0
      3 C0000003              -2                       0
      4 C0000004             -12                       0
      5 C0000005              -5                       0
      6 C0000006             -11                       0
      7 C0000007              -2                       0
      8 C0000008              -8                       0
      9 C0000009             -10                       0
     10 C0000010              -9                       0
     11 C0000011              -3                       0
     12 C0000012              -6                       0
     13 C0000013              -7                       0
     14 C0000014              13                       0
     15 C0000015             -13                       0
     16 C0000016               1                       0
     17 C0000017               1                       0
     18 C0000018             -10                       0
     19 C0000019              -8                       0
     20 C0000020              13                       0
     21 C0000021              -7                       0
     22 C0000022               2                       0
     23 C0000023              -4                       0
     24 C0000024              -6                       0
     25 C0000025              -5                       0
     26 C0000026              13                       0
     27 C0000027              -2                       0
     28 C0000028              -3                       0
     29 C0000029               3                       0
     30 C0000030              -9                       0
     31 C0000031               1                       0
     32 C0000032               1                       0
     33 C0000033              10                       0
     34 C0000034               2                       0
     35 C0000035               9                       0
     36 C0000036               3                       0
     37 C0000037              12                       0
     38 C0000038               6                       0
     39 C0000039               4                       0
     40 C0000040               5                       0
     41 C0000041              11                       0
     42 C0000042               8                       0
     43 C0000043               7                       0
     44 C0000044              13                       0
     45 C0000045              13                       0
     46 C0000046               1                       0
     47 C0000047               1                       0
     48 C0000048               8                       0
     49 C0000049              -2                       0
     50 C0000050               7                       0
     51 C0000051              13                       0
     52 C0000052              10                       0
     53 C0000053               4                       0
     54 C0000054               2                       0
     55 C0000055               3                       0
     56 C0000056               9                       0
     57 C0000057               6                       0
     58 C0000058               5                       0
     59 C0000059              11                       0
     60 C0000060              13                       0
     61 C0000061               1                       0
     62 C0000062               1                       0
     63 C0000063              13                       0
     64 C0000064              -9                       0
     65 C0000065              -7                       0
     66 C0000066              -6                       0
     67 C0000067               3                       0
     68 C0000068              -3                       0
     69 C0000069              -5                       0
     70 C0000070              -4                       0
     71 C0000071               2                       0
     72 C0000072              13                       0
     73 C0000073              -2                       0
     74 C0000074               4                       0
     75 C0000075              -8                       0
     76 C0000076               1                       0
     77 C0000077               1                       0
     78 C0000078               7                       0
     79 C0000079              -3                       0
     80 C0000080              13                       0
     81 C0000081               6                       0
     82 C0000082               9                       0
     83 C0000083               3                       0
     84 C0000084              13                       0
     85 C0000085               2                       0
     86 C0000086               8                       0
     87 C0000087               5                       0
     88 C0000088               4                       0
     89 C0000089              10                       0
     90 C0000090              -2                       0
     91 C0000091               1                       0
     92 C0000092               1                       0
     93 C0000093              -2                       0
     94 C0000094             -12                       0
     95 C0000095             -10                       0
     96 C0000096              -3                       0
     97 C0000097              -9                       0
     98 C0000098              -6                       0
     99 C0000099              -8                       0
    100 C0000100              -7                       0
    101 C0000101              13                       0
    102 C0000102              -4                       0
    103 C0000103              -5                       0
    104 C0000104              13                       0
    105 C0000105             -11                       0
    106 C0000106               1                       0
    107 C0000107               1                       0
    108 C0000108               4                       0
    109 C0000109              -6                       0
    110 C0000110              -4                       0
    111 C0000111               3                       0
    112 C0000112              -3                       0
    113 C0000113               6                       0
    114 C0000114              -2                       0
    115 C0000115              13                       0
    116 C0000116               5                       0
    117 C0000117               2                       0
    118 C0000118              13                       0
    119 C0000119               7                       0
    120 C0000120              -5                       0
    121 C0000121               1                       0
    122 C0000122               1                       0
    123 C0000123               6                       0
    124 C0000124              -4                       0
    125 C0000125              -2                       0
    126 C0000126               5                       0
    127 C0000127              13                       0
    128 C0000128               8                       0
    129 C0000129               2                       0
    130 C0000130              13                       0
    131 C0000131               7                       0
    132 C0000132               4                       0
    133 C0000133               3                       0
    134 C0000134               9                       0
    135 C0000135              -3                       0
    136 C0000136               1                       0
    137 C0000137               1                       0
    138 C0000138               5                       0
    139 C0000139              -5                       0
    140 C0000140              -3                       0
    141 C0000141               4                       0
    142 C0000142              -2                       0
    143 C0000143               7                       0
    144 C0000144              13                       0
    145 C0000145              13                       0
    146 C0000146               6                       0
    147 C0000147               3                       0
    148 C0000148               2                       0
    149 C0000149               8                       0
    150 C0000150              -4                       0
    151 C0000151               1                       0
    152 C0000152               1                       0
    153 C0000153              13                       0
    154 C0000154             -11                       0
    155 C0000155              -9                       0
    156 C0000156              -2                       0
    157 C0000157              -8                       0
    158 C0000158              13                       0
    159 C0000159              -5                       0
    160 C0000160              -7                       0
    161 C0000161              -6                       0
    162 C0000162              -3                       0
    163 C0000163              -4                       0
    164 C0000164               2                       0
    165 C0000165             -10                       0
    166 C0000166               1                       0
    167 C0000167               1                       0
    168 C0000168               2                       0
    169 C0000169              -8                       0
    170 C0000170              -6                       0
    171 C0000171              13                       0
    172 C0000172              -5                       0
    173 C0000173               4                       0
    174 C0000174              -2                       0
    175 C0000175              -4                       0
    176 C0000176              -3                       0
    177 C0000177               3                       0
    178 C0000178              13                       0
    179 C0000179               5                       0
    180 C0000180              -7                       0
    181 C0000181               1                       0
    182 C0000182               1                       0
    183 C0000183               3                       0
    184 C0000184              -7                       0
    185 C0000185              -5                       0
    186 C0000186               2                       0
    187 C0000187              -4                       0
    188 C0000188               5                       0
    189 C0000189              13                       0
    190 C0000190              -3                       0
    191 C0000191              -2                       0
    192 C0000192               4                       0
    193 C0000193              13                       0
    194 C0000194               6                       0
    195 C0000195              -6                       0
    196 C0000196               1                       0
    197 C0000197               1                       0
    198 C0000198              -3                       0
    199 C0000199             -13                       0
    200 C0000200             -11                       0
    201 C0000201              -4                       0
    202 C0000202             -10                       0
    203 C0000203              13                       0
    204 C0000204              -7                       0
    205 C0000205              -9                       0
    206 C0000206              -8                       0
    207 C0000207              -2                       0
    208 C0000208              -5                       0
    209 C0000209              -6                       0
    210 C0000210             -12                       0
    211 C0000211               1                       0
    212 C0000212               1                       0
    213 C0000213               9                       0
    214 C0000214              13                       0
    215 C0000215              13                       0
    216 C0000216               8                       0
    217 C0000217               2                       0
    218 C0000218              11                       0
    219 C0000219               5                       0
    220 C0000220               3                       0
    221 C0000221               4                       0
    222 C0000222              10                       0
    223 C0000223               7                       0
    224 C0000224               6                       0
    225 C0000225              12                       0
    226 C0000226              -4                       0
    227 C0000227               4                       0
    228 C0000228              -2                       0
    229 C0000229              13                       0
    230 C0000230             -12                       0
    231 C0000231              12                       0
    232 C0000232              -5                       0
    233 C0000233               5                       0
    234 C0000234             -11                       0
    235 C0000235              11                       0
    236 C0000236              -2                       0
    237 C0000237               2                       0
    238 C0000238              -8                       0
    239 C0000239               8                       0
    240 C0000240             -10                       0
    241 C0000241              10                       0
    242 C0000242              -9                       0
    243 C0000243               9                       0
    244 C0000244              -3                       0
    245 C0000245               3                       0
    246 C0000246              -6                       0
    247 C0000247               6                       0
    248 C0000248              -7                       0
    249 C0000249               7                       0
    250 C0000250              -2                       0
    251 C0000251             -11                       0
    252 C0000252             -13                       0
    253 C0000253              13                       0
    254 C0000254  1.1368684e-013                       0
    255 C0000255  1.1368684e-013                       0
      0 X0000000             364                       0
      1 X0000001             436                       0
      2 X0000002               0                       0
      3 X0000003               4                       0
      4 X0000004               3                       0
      5 X0000005               6                       0
      6 X0000006               7                       0
      7 X0000007               1                       0
      8 X0000008              13                       0
      9 X0000009              14                       0
     10 X0000010              12                       0
     11 X0000011               5                       0
     12 X0000012              11                       0
     13 X0000013               2                       0
     14 X0000014               8                       0
     15 X0000015              10                       0
     16 X0000016               9                       0
     17 X0000017               0                      79
     18 X0000018               0                      63
     19 X0000019               0                     123
     20 X0000020               0                     119
     21 X0000021               1                      79
     22 X0000022               0                      59
     23 X0000023               0                      39
     24 X0000024               0                      58
     25 X0000025               0                      90
     26 X0000026               0                      94
     27 X0000027               0                      94
     28 X0000028               0                      74
     29 X0000029               0                     110
     30 X0000030               0                      89
     31 X0000031               0                      79
     32 X0000032               0                      62
     33 X0000033               0                     102
     34 X0000034               0                     113
     35 X0000035               0                      79
     36 X0000036               0                      88
     37 X0000037               0                      93
     38 X0000038               0                      91
     39 X0000039               1                      51
     40 X0000040               0                     144
     41 X0000041               0                      93
     42 X0000042               0                      64
     43 X0000043               0                     151
     44 X0000044               0                     132
     45 X0000045               0                      63
     46 X0000046               1                      62
     47 X0000047               0                      80
     48 X0000048               0                      97
     49 X0000049               0                      29
     50 X0000050               0                      95
     51 X0000051               0                      64
     52 X0000052               0                      77
     53 X0000053               0                      69
     54 X0000054               0                      95
     55 X0000055               0                      42
     56 X0000056               0                      52
     57 X0000057               0                     113
     58 X0000058               0                      93
     59 X0000059               0                     123
     60 X0000060               0                     102
     61 X0000061               0                      80
     62 X0000062               1                      68
     63 X0000063               0                      91
     64 X0000064               0                     153
     65 X0000065               0                     133
     66 X0000066               0                     106
     67 X0000067               0                      55
     68 X0000068               0                     122
     69 X0000069               0                     102
     70 X0000070               0                      61
     71 X0000071               0                     114
     72 X0000072               0                     103
     73 X0000073               0                     119
     74 X0000074               0                     113
     75 X0000075               0                      97
     76 X0000076               0                      68
     77 X0000077               0                     123
     78 X0000078               0                     120
     79 X0000079               0                     103
     80 X0000080               0                     138
     81 X0000081               0                     111
     82 X0000082               0                     116
     83 X0000083               0                     128
     84 X0000084               1                      59
     85 X0000085               0                      99
     86 X0000086               0                      86
     87 X0000087               0                      79
     88 X0000088               0                      79
     89 X0000089               0                      29
     90 X0000090               0                      91
     91 X0000091               0                     123
     92 X0000092               0                     115
     93 X0000093               0                      81
     94 X0000094               0                      93
     95 X0000095               0                      83
     96 X0000096               0                     121
     97 X0000097               1                      17
     98 X0000098               0                      80
     99 X0000099               0                     140
    100 X0000100               0                     121
    101 X0000101               0                      59
    102 X0000102               0                      88
    103 X0000103               0                      95
    104 X0000104               0                     153
    105 X0000105               0                     120
    106 X0000106               0                     115
    107 X0000107               1                      39
    108 X0000108               0                      86
    109 X0000109               0                     114
    110 X0000110               0                     103
    111 X0000111               0                     129
    112 X0000112               0                      93
    113 X0000113               0                     108
    114 X0000114               0                      93
    115 X0000115               1                      39
    116 X0000116               0                      93
    117 X0000117               0                      64
    118 X0000118               0                     133
    119 X0000119               0                     103
    120 X0000120               0                      81
    121 X0000121               0                      39
    122 X0000122               0                      76
    123 X0000123               0                     108
    124 X0000124               0                      81
    125 X0000125               0                      95
    126 X0000126               0                      77
    127 X0000127               0                      91
    128 X0000128               0                      73
    129 X0000129               0                      58
    130 X0000130               0                      91
    131 X0000131               0                      77
    132 X0000132               0                     106
    133 X0000133               0                     138
    134 X0000134               0                      93
    135 X0000135               1                      86
    136 X0000136               0                      76
    137 X0000137               0                      75
    138 X0000138               0                      82
    139 X0000139               0                     110
    140 X0000140               0                      85
    141 X0000141               0                     102
    142 X0000142               0                      90
    143 X0000143               0                      90
    144 X0000144               0                      51
    145 X0000145               0                      69
    146 X0000146               1                      55
    147 X0000147               0                     111
    148 X0000148               0                      83
    149 X0000149               0                     114
    150 X0000150               0                     108
    151 X0000151               0                      75
    152 X0000152               0                     126
    153 X0000153               0                     100
    154 X0000154               0                      57
    155 X0000155               0                     134
    156 X0000156               0                     116
    157 X0000157               0                      94
    158 X0000158               0                     144
    159 X0000159               0                      95
    160 X0000160               0                     122
    161 X0000161               0                     116
    162 X0000162               0                     121
    163 X0000163               0                     103
    164 X0000164               0                      81
    165 X0000165               1                      82
    166 X0000166               0                     126
    167 X0000167               0                     130
    168 X0000168               0                      93
    169 X0000169               0                      27
    170 X0000170               0                      31
    171 X0000171               0                      94
    172 X0000172               0                      93
    173 X0000173               1                      42
    174 X0000174               0                     102
    175 X0000175               0                     128
    176 X0000176               0                      17
    177 X0000177               0                     129
    178 X0000178               0                      95
    179 X0000179               0                     110
    180 X0000180               0                     100
    181 X0000181               0                     130
    182 X0000182               0                      92
    183 X0000183               0                     147
    184 X0000184               0                     129
    185 X0000185               0                      74
    186 X0000186               0                      64
    187 X0000187               0                      52
    188 X0000188               0                      61
    189 X0000189               0                      59
    190 X0000190               0                      80
    191 X0000191               0                      93
    192 X0000192               0                      77
    193 X0000193               0                      85
    194 X0000194               0                      57
    195 X0000195               0                      93
    196 X0000196               0                      92
    197 X0000197               0                      91
    198 X0000198               1                      73
    199 X0000199               0                     110
    200 X0000200               0                     151
    201 X0000201               0                     113
    202 X0000202               0                     114
    203 X0000203               0                      99
    204 X0000204               0                     140
    205 X0000205               0                     108
    206 X0000206               0                      91
    207 X0000207               0                     102
    208 X0000208               0                     134
    209 X0000209               1                      27
    210 X0000210               0                     147
    211 X0000211               0                      91
    212 X0000212               0                      21
    213 X0000213               0                      89
    214 X0000214               0                     132
    215 X0000215               0                      93
    216 X0000216               0                     103
    217 X0000217               0                      86
    218 X0000218               0                     121
    219 X0000219               0                      93
    220 X0000220               0                      73
    221 X0000221               0                      90
    222 X0000222               0                     116
    223 X0000223               0                      31
    224 X0000224               0                     129
    225 X0000225               0                      73
    226 X0000226               1                      21
